98          75
57          6
38          27
20          72
68          27
96          91
44          72
7           71
2           40
80          17
27          41
8           91
19          96
74          50
41          49
63          72
34          63
18          35
38          76
46          43
33          41
96          58
25          18
16          91
75          24
50          13
38          40
98          100
100         75
59          94
87          3
70          78
66          45
36          23
70          46
57          90
68          4
96          24
50          90
73          28
28          20
87          10
56          33
99          22
77          1
6          80
33         55
10         69
35         61
62         78
